Global Parameters
  ISTART =  0            (Read existing wavefunction; if there)
  # ISPIN =  2           (Spin polarised DFT)
  # ICHARG =  11         (Non-self-consistent: GGA/LDA band structures)
  LREAL  = .FALSE.       (Projection operators: automatic)
  ENCUT  =  500          (Cut-off energy for plane wave basis set, in eV)
  PREC   =  Accurate       (Precision level)
  EDIFF  =  1E-04        (SCF energy convergence; in eV)
  NELM   =  100           (Max electronic SCF steps)
  LWAVE  = .FALSE.        (Write WAVECAR or not)
  #LCHARG = .TRUE.        (Write CHGCAR or not)
  ADDGRID= .TRUE.        (Increase grid; helps GGA convergence)
  #IVDW   =  11
  # LVTOT  = .TRUE.      (Write total electrostatic potential into LOCPOT or not)
  # LVHAR  = .TRUE.      (Write ionic + Hartree electrostatic potential into LOCPOT or not)
  # NELECT =             (No. of electrons: charged cells; be careful)
  # LPLANE = .TRUE.      (Real space distribution; supercells)
   NPAR   = 4           (Max is no. nodes; don't set for hybrids)
  # NWRITE = 2           (Medium-level output)
  # KPAR   = 2           (Divides k-grid into separate groups)
  # NGX    = 500         (FFT grid mesh density for nice charge/potential plots)
  # NGY    = 500         (FFT grid mesh density for nice charge/potential plots)
  # NGZ    = 500         (FFT grid mesh density for nice charge/potential plots)
  # ISYM   =0
 IVDW=12
  #SYMPREC= 1E-4 
  
Lattice Relaxation
  NSW    =  600          (number of ionic steps)
  POTIM  =  0.1
  ISMEAR =  -5            (gaussian smearing method )
  SIGMA  =  0.01         (please check the width of the smearing)
  IBRION =  1            (Algorithm: 0-MD; 1-Quasi-New; 2-CG)
  ISIF   =  3            (optimize atomic coordinates and lattice parameters)
  EDIFFG =  -1.0E-03      (Ionic convergence; eV/AA)

 
