Np2 Co4
1.0
   4.3585341499999997    0.0012328900000000    2.5164958700000000
   1.4533514700000001    4.1090343699999998    2.5176962400000003
  -0.0003614900000000    0.0010592600000000    5.0333886100000003
Np Co
2 4
direct
   0.8753615200000000    0.8746709100000000    0.8753109700000000 Np
   0.1254022200000000    0.1246550300000000    0.1252749100000000 Np
   0.4999927600000000    0.4999962500000000    0.4996267400000000 Co
   0.5000128300000000    0.5003574800000000   -0.0003395800000000 Co
  -0.0003908700000000    0.4999487700000000    0.5000591100000000 Co
   0.4996205400000000    0.0003715700000000    0.5000648400000001 Co
