Hf1 Be5
1.0
   4.5194016100000001   -0.0000000000000000   -0.0000000000000000
  -2.2597018100000001    3.9139177200000002    0.0000000000000000
  -0.0000000000000000    0.0000000000000000    3.4396904300000002
Hf Be
1 5
direct
  -0.0000000000000000    0.0000000000000000    0.0000000000000000 Hf
   0.3333330000000000    0.6666670000000000    0.0000000000000000 Be
   0.6666670000000000    0.3333330000000000   -0.0000000000000000 Be
   0.5000000000000000    0.0000000000000000    0.5000000000000000 Be
   0.5000000000000000    0.5000000000000000    0.5000000000000000 Be
  -0.0000000000000000    0.5000000000000000    0.5000000000000000 Be
