Sm1 Pd3
1.0
   4.1406224500000004    0.0000000000000000   -0.0000000000000000
   0.0000000000000000    4.1406224500000004   -0.0000000000000000
   0.0000000000000000    0.0000000000000000    4.1406224500000004
Sm Pd
1 3
direct
  -0.0000000000000000    0.0000000000000000    0.0000000000000000 Sm
  -0.0000000000000000    0.5000000000000000    0.5000000000000000 Pd
   0.5000000000000000    0.5000000000000000    0.0000000000000000 Pd
   0.5000000000000000    0.0000000000000000    0.5000000000000000 Pd
